NAME : OMNETRUN
COMMENT : 524.61
TYPE : CVRP
DIMENSION : 21
EDGE_WEIGHT_TYPE : EUC_2D
CAPACITY : 21
NODE_COORD_SECTION
1 0.107093 -0.77924
2 164.831 -1468.74
3 82.6661 -3389.22
4 166.066 -4585.07
5 102.231 -4976.11
6 219.003 -5749.36
7 481.291 -95.153
8 317.342 -659.346
9 331.651 -2095.93
10 310.318 -3069.03
11 366.746 -3725.5
12 325.559 -4262.86
13 674.951 -1163.45
14 535.703 -1646.5
15 575.411 -2466.29
16 653.453 -3170.47
17 603.154 -4840.54
18 544.663 -5321.47
19 658.271 -5847.16
20 759.85 -532.219
21 758.291 -1947.88
DEMAND_SECTION
1 0
2 1
3 1
4 1
5 1
6 1
7 1
8 1
9 1
10 1
11 1
12 1
13 1
14 1
15 1
16 1
17 1
18 1
19 1
20 1
21 1
DEPOT_SECTION
1
-1
EOF
